p cnf 1247 2960
1 0
2 0
3 0
4 0
5 0
6 0
7 0
8 0
9 0
10 0
11 0
12 0
13 0
14 0
15 0
16 0
17 0
18 0
19 0
20 0
21 0
22 0
-23 0
-24 0
-25 0
-26 0
-27 0
-28 0
-29 0
-30 0
-31 0
-32 0
-33 0
-34 0
-35 0
-36 0
-37 0
-38 0
-39 0
-40 0
-41 0
-42 0
-43 0
-44 0
-45 0
-46 0
-47 0
48 49 0
50 49 0
51 49 0
-48 -50 -51 -49 0
-1 49 -52 0
1 -49 -52 0
52 -49 -1 0
1 49 52 0
-52 0
50 53 0
51 53 0
-50 -51 -53 0
-54 53 -55 0
54 -53 -55 0
55 -53 -54 0
54 53 55 0
-55 0
-2 53 -56 0
2 -53 -56 0
56 -53 -2 0
2 53 56 0
-56 0
57 58 0
59 58 0
60 58 0
-57 -59 -60 -58 0
-3 58 -61 0
3 -58 -61 0
61 -58 -3 0
3 58 61 0
-61 0
59 62 0
60 62 0
-59 -60 -62 0
-63 62 -64 0
63 -62 -64 0
64 -62 -63 0
63 62 64 0
-64 0
65 -60 0
60 -65 0
66 67 0
68 67 0
69 67 0
70 67 0
71 67 0
72 67 0
73 67 0
-74 0
-4 67 -75 0
4 -67 -75 0
75 -67 -4 0
4 67 75 0
-75 0
68 76 0
69 76 0
70 76 0
71 76 0
72 76 0
73 76 0
-77 0
-78 76 -79 0
78 -76 -79 0
79 -76 -78 0
78 76 79 0
-79 0
69 80 0
70 80 0
71 80 0
72 80 0
73 80 0
-81 0
-82 80 -83 0
82 -80 -83 0
83 -80 -82 0
82 80 83 0
-83 0
70 84 0
71 84 0
72 84 0
73 84 0
-85 0
-86 84 -87 0
86 -84 -87 0
87 -84 -86 0
86 84 87 0
-87 0
71 88 0
72 88 0
73 88 0
-71 -72 -73 -88 0
-89 88 -90 0
89 -88 -90 0
90 -88 -89 0
89 88 90 0
-90 0
-91 88 -92 0
91 -88 -92 0
92 -88 -91 0
91 88 92 0
-92 0
-5 88 -93 0
5 -88 -93 0
93 -88 -5 0
5 88 93 0
-93 0
94 95 0
96 95 0
97 95 0
-94 -96 -97 -95 0
-6 95 -98 0
6 -95 -98 0
98 -95 -6 0
6 95 98 0
-98 0
96 99 0
97 99 0
-96 -97 -99 0
-100 99 -101 0
100 -99 -101 0
101 -99 -100 0
100 99 101 0
-101 0
102 -97 0
97 -102 0
97 103 0
104 103 0
-97 -104 -103 0
-7 103 -105 0
7 -103 -105 0
105 -103 -7 0
7 103 105 0
-105 0
106 107 0
108 107 0
109 107 0
110 107 0
111 107 0
112 107 0
-113 0
-8 107 -114 0
8 -107 -114 0
114 -107 -8 0
8 107 114 0
-114 0
108 115 0
109 115 0
110 115 0
111 115 0
112 115 0
-116 0
-117 115 -118 0
117 -115 -118 0
118 -115 -117 0
117 115 118 0
-118 0
109 119 0
110 119 0
111 119 0
112 119 0
-120 0
-121 119 -122 0
121 -119 -122 0
122 -119 -121 0
121 119 122 0
-122 0
110 123 0
111 123 0
112 123 0
-110 -111 -112 -123 0
-124 123 -125 0
124 -123 -125 0
125 -123 -124 0
124 123 125 0
-125 0
-126 123 -127 0
126 -123 -127 0
127 -123 -126 0
126 123 127 0
-127 0
-128 123 -129 0
128 -123 -129 0
129 -123 -128 0
128 123 129 0
-129 0
71 130 0
72 130 0
73 130 0
131 130 0
132 130 0
-133 0
-9 130 -134 0
9 -130 -134 0
134 -130 -9 0
9 130 134 0
-134 0
71 135 0
72 135 0
73 135 0
132 135 0
-136 0
-137 135 -138 0
137 -135 -138 0
138 -135 -137 0
137 135 138 0
-138 0
71 139 0
72 139 0
73 139 0
132 139 0
140 139 0
141 139 0
142 139 0
-143 0
-10 139 -144 0
10 -139 -144 0
144 -139 -10 0
10 139 144 0
-144 0
71 145 0
72 145 0
73 145 0
132 145 0
141 145 0
142 145 0
-146 0
-147 145 -148 0
147 -145 -148 0
148 -145 -147 0
147 145 148 0
-148 0
71 149 0
72 149 0
73 149 0
132 149 0
142 149 0
-150 0
-151 149 -152 0
151 -149 -152 0
152 -149 -151 0
151 149 152 0
-152 0
153 154 0
155 154 0
156 154 0
157 154 0
158 154 0
159 154 0
-160 0
-11 154 -161 0
11 -154 -161 0
161 -154 -11 0
11 154 161 0
-161 0
155 162 0
156 162 0
157 162 0
158 162 0
159 162 0
-163 0
-164 162 -165 0
164 -162 -165 0
165 -162 -164 0
164 162 165 0
-165 0
156 166 0
157 166 0
158 166 0
159 166 0
-167 0
-168 166 -169 0
168 -166 -169 0
169 -166 -168 0
168 166 169 0
-169 0
-170 166 -171 0
170 -166 -171 0
171 -166 -170 0
170 166 171 0
-171 0
-172 166 -173 0
172 -166 -173 0
173 -166 -172 0
172 166 173 0
-173 0
-174 166 -175 0
174 -166 -175 0
175 -166 -174 0
174 166 175 0
-175 0
176 177 0
178 177 0
179 177 0
180 177 0
181 177 0
182 177 0
183 177 0
-184 0
-12 177 -185 0
12 -177 -185 0
185 -177 -12 0
12 177 185 0
-185 0
178 186 0
179 186 0
180 186 0
181 186 0
182 186 0
183 186 0
-187 0
-188 186 -189 0
188 -186 -189 0
189 -186 -188 0
188 186 189 0
-189 0
179 190 0
180 190 0
181 190 0
182 190 0
183 190 0
-191 0
-192 190 -193 0
192 -190 -193 0
193 -190 -192 0
192 190 193 0
-193 0
180 194 0
181 194 0
182 194 0
183 194 0
-195 0
-196 194 -197 0
196 -194 -197 0
197 -194 -196 0
196 194 197 0
-197 0
-198 194 -199 0
198 -194 -199 0
199 -194 -198 0
198 194 199 0
-199 0
-200 194 -201 0
200 -194 -201 0
201 -194 -200 0
200 194 201 0
-201 0
-202 194 -203 0
202 -194 -203 0
203 -194 -202 0
202 194 203 0
-203 0
155 204 0
156 204 0
157 204 0
158 204 0
159 204 0
205 204 0
-206 0
-13 204 -207 0
13 -204 -207 0
207 -204 -13 0
13 204 207 0
-207 0
180 208 0
181 208 0
182 208 0
183 208 0
209 208 0
-210 0
-14 208 -211 0
14 -208 -211 0
211 -208 -14 0
14 208 211 0
-211 0
48 212 0
50 212 0
51 212 0
213 212 0
-214 0
-15 212 -215 0
15 -212 -215 0
215 -212 -15 0
15 212 215 0
-215 0
50 216 0
51 216 0
217 216 0
218 216 0
219 216 0
-220 0
-16 216 -221 0
16 -216 -221 0
221 -216 -16 0
16 216 221 0
-221 0
50 222 0
51 222 0
218 222 0
219 222 0
-223 0
-224 222 -225 0
224 -222 -225 0
225 -222 -224 0
224 222 225 0
-225 0
50 226 0
51 226 0
219 226 0
-50 -51 -219 -226 0
-227 226 -228 0
227 -226 -228 0
228 -226 -227 0
227 226 228 0
-228 0
48 229 0
50 229 0
51 229 0
230 229 0
-231 0
-17 229 -232 0
17 -229 -232 0
232 -229 -17 0
17 229 232 0
-232 0
180 233 0
181 233 0
182 233 0
183 233 0
234 233 0
235 233 0
236 233 0
-237 0
-18 233 -238 0
18 -233 -238 0
238 -233 -18 0
18 233 238 0
-238 0
180 239 0
181 239 0
182 239 0
183 239 0
235 239 0
236 239 0
-240 0
-241 239 -242 0
241 -239 -242 0
242 -239 -241 0
241 239 242 0
-242 0
180 243 0
181 243 0
182 243 0
183 243 0
236 243 0
-244 0
-245 243 -246 0
245 -243 -246 0
246 -243 -245 0
245 243 246 0
-246 0
48 247 0
50 247 0
51 247 0
230 247 0
248 247 0
-249 0
-19 247 -250 0
19 -247 -250 0
250 -247 -19 0
19 247 250 0
-250 0
109 251 0
110 251 0
111 251 0
112 251 0
252 251 0
253 251 0
254 251 0
-255 0
-20 251 -256 0
20 -251 -256 0
256 -251 -20 0
20 251 256 0
-256 0
109 257 0
110 257 0
111 257 0
112 257 0
253 257 0
254 257 0
-258 0
-259 257 -260 0
259 -257 -260 0
260 -257 -259 0
259 257 260 0
-260 0
109 261 0
110 261 0
111 261 0
112 261 0
254 261 0
-262 0
-263 261 -264 0
263 -261 -264 0
264 -261 -263 0
263 261 264 0
-264 0
97 265 0
104 265 0
266 265 0
267 265 0
-268 0
-21 265 -269 0
21 -265 -269 0
269 -265 -21 0
21 265 269 0
-269 0
97 270 0
104 270 0
267 270 0
-97 -104 -267 -270 0
-271 270 -272 0
271 -270 -272 0
272 -270 -271 0
271 270 272 0
-272 0
97 273 0
104 273 0
274 273 0
-97 -104 -274 -273 0
-22 273 -275 0
22 -273 -275 0
275 -273 -22 0
22 273 275 0
-275 0
276 277 0
278 277 0
279 277 0
280 277 0
281 277 0
-282 0
-23 277 -283 0
23 -277 -283 0
283 -277 -23 0
23 277 283 0
-283 0
278 284 0
279 284 0
280 284 0
281 284 0
-285 0
-286 284 -287 0
286 -284 -287 0
287 -284 -286 0
286 284 287 0
-287 0
279 288 0
280 288 0
281 288 0
-279 -280 -281 -288 0
-289 288 -290 0
289 -288 -290 0
290 -288 -289 0
289 288 290 0
-290 0
-291 288 -292 0
291 -288 -292 0
292 -288 -291 0
291 288 292 0
-292 0
-293 288 -294 0
293 -288 -294 0
294 -288 -293 0
293 288 294 0
-294 0
295 296 0
297 296 0
298 296 0
299 296 0
300 296 0
301 296 0
302 296 0
303 296 0
-304 0
-24 296 -305 0
24 -296 -305 0
305 -296 -24 0
24 296 305 0
-305 0
297 306 0
298 306 0
299 306 0
300 306 0
301 306 0
302 306 0
303 306 0
-307 0
-308 306 -309 0
308 -306 -309 0
309 -306 -308 0
308 306 309 0
-309 0
298 310 0
299 310 0
300 310 0
301 310 0
302 310 0
303 310 0
-311 0
-312 310 -313 0
312 -310 -313 0
313 -310 -312 0
312 310 313 0
-313 0
299 314 0
300 314 0
301 314 0
302 314 0
303 314 0
-315 0
-316 314 -317 0
316 -314 -317 0
317 -314 -316 0
316 314 317 0
-317 0
300 318 0
301 318 0
302 318 0
303 318 0
-319 0
-320 318 -321 0
320 -318 -321 0
321 -318 -320 0
320 318 321 0
-321 0
-322 318 -323 0
322 -318 -323 0
323 -318 -322 0
322 318 323 0
-323 0
-324 318 -325 0
324 -318 -325 0
325 -318 -324 0
324 318 325 0
-325 0
-326 318 -327 0
326 -318 -327 0
327 -318 -326 0
326 318 327 0
-327 0
328 329 0
330 329 0
331 329 0
332 329 0
333 329 0
334 329 0
335 329 0
-336 0
-25 329 -337 0
25 -329 -337 0
337 -329 -25 0
25 329 337 0
-337 0
330 338 0
331 338 0
332 338 0
333 338 0
334 338 0
335 338 0
-339 0
-340 338 -341 0
340 -338 -341 0
341 -338 -340 0
340 338 341 0
-341 0
331 342 0
332 342 0
333 342 0
334 342 0
335 342 0
-343 0
-344 342 -345 0
344 -342 -345 0
345 -342 -344 0
344 342 345 0
-345 0
332 346 0
333 346 0
334 346 0
335 346 0
-347 0
-348 346 -349 0
348 -346 -349 0
349 -346 -348 0
348 346 349 0
-349 0
-350 346 -351 0
350 -346 -351 0
351 -346 -350 0
350 346 351 0
-351 0
-352 346 -353 0
352 -346 -353 0
353 -346 -352 0
352 346 353 0
-353 0
-354 346 -355 0
354 -346 -355 0
355 -346 -354 0
354 346 355 0
-355 0
180 356 0
181 356 0
182 356 0
183 356 0
357 356 0
358 356 0
359 356 0
-360 0
-26 356 -361 0
26 -356 -361 0
361 -356 -26 0
26 356 361 0
-361 0
180 362 0
181 362 0
182 362 0
183 362 0
358 362 0
359 362 0
-363 0
-364 362 -365 0
364 -362 -365 0
365 -362 -364 0
364 362 365 0
-365 0
180 366 0
181 366 0
182 366 0
183 366 0
359 366 0
-367 0
-368 366 -369 0
368 -366 -369 0
369 -366 -368 0
368 366 369 0
-369 0
370 371 0
372 371 0
373 371 0
374 371 0
375 371 0
376 371 0
-377 0
-27 371 -378 0
27 -371 -378 0
378 -371 -27 0
27 371 378 0
-378 0
372 379 0
373 379 0
374 379 0
375 379 0
376 379 0
-380 0
-381 379 -382 0
381 -379 -382 0
382 -379 -381 0
381 379 382 0
-382 0
373 383 0
374 383 0
375 383 0
376 383 0
-384 0
-385 383 -386 0
385 -383 -386 0
386 -383 -385 0
385 383 386 0
-386 0
374 387 0
375 387 0
376 387 0
-374 -375 -376 -387 0
-388 387 -389 0
388 -387 -389 0
389 -387 -388 0
388 387 389 0
-389 0
375 390 0
376 390 0
-375 -376 -390 0
-391 390 -392 0
391 -390 -392 0
392 -390 -391 0
391 390 392 0
-392 0
-393 390 -394 0
393 -390 -394 0
394 -390 -393 0
393 390 394 0
-394 0
395 396 0
397 396 0
398 396 0
399 396 0
400 396 0
401 396 0
402 396 0
-403 0
-28 396 -404 0
28 -396 -404 0
404 -396 -28 0
28 396 404 0
-404 0
397 405 0
398 405 0
399 405 0
400 405 0
401 405 0
402 405 0
-406 0
-407 405 -408 0
407 -405 -408 0
408 -405 -407 0
407 405 408 0
-408 0
398 409 0
399 409 0
400 409 0
401 409 0
402 409 0
-410 0
-411 409 -412 0
411 -409 -412 0
412 -409 -411 0
411 409 412 0
-412 0
399 413 0
400 413 0
401 413 0
402 413 0
-414 0
-415 413 -416 0
415 -413 -416 0
416 -413 -415 0
415 413 416 0
-416 0
400 417 0
401 417 0
402 417 0
-400 -401 -402 -417 0
-418 417 -419 0
418 -417 -419 0
419 -417 -418 0
418 417 419 0
-419 0
-420 417 -421 0
420 -417 -421 0
421 -417 -420 0
420 417 421 0
-421 0
-422 417 -423 0
422 -417 -423 0
423 -417 -422 0
422 417 423 0
-423 0
424 425 0
426 425 0
427 425 0
428 425 0
429 425 0
430 425 0
-431 0
-29 425 -432 0
29 -425 -432 0
432 -425 -29 0
29 425 432 0
-432 0
426 433 0
427 433 0
428 433 0
429 433 0
430 433 0
-434 0
-435 433 -436 0
435 -433 -436 0
436 -433 -435 0
435 433 436 0
-436 0
427 437 0
428 437 0
429 437 0
430 437 0
-438 0
-439 437 -440 0
439 -437 -440 0
440 -437 -439 0
439 437 440 0
-440 0
-441 437 -442 0
441 -437 -442 0
442 -437 -441 0
441 437 442 0
-442 0
-443 437 -444 0
443 -437 -444 0
444 -437 -443 0
443 437 444 0
-444 0
-445 437 -446 0
445 -437 -446 0
446 -437 -445 0
445 437 446 0
-446 0
447 448 0
449 448 0
450 448 0
451 448 0
452 448 0
453 448 0
454 448 0
-455 0
-30 448 -456 0
30 -448 -456 0
456 -448 -30 0
30 448 456 0
-456 0
449 457 0
450 457 0
451 457 0
452 457 0
453 457 0
454 457 0
-458 0
-459 457 -460 0
459 -457 -460 0
460 -457 -459 0
459 457 460 0
-460 0
450 461 0
451 461 0
452 461 0
453 461 0
454 461 0
-462 0
-463 461 -464 0
463 -461 -464 0
464 -461 -463 0
463 461 464 0
-464 0
451 465 0
452 465 0
453 465 0
454 465 0
-466 0
-467 465 -468 0
467 -465 -468 0
468 -465 -467 0
467 465 468 0
-468 0
452 469 0
453 469 0
454 469 0
-452 -453 -454 -469 0
-470 469 -471 0
470 -469 -471 0
471 -469 -470 0
470 469 471 0
-471 0
-472 469 -473 0
472 -469 -473 0
473 -469 -472 0
472 469 473 0
-473 0
-474 469 -475 0
474 -469 -475 0
475 -469 -474 0
474 469 475 0
-475 0
476 477 0
478 477 0
479 477 0
480 477 0
481 477 0
482 477 0
-483 0
-31 477 -484 0
31 -477 -484 0
484 -477 -31 0
31 477 484 0
-484 0
478 485 0
479 485 0
480 485 0
481 485 0
482 485 0
-486 0
-487 485 -488 0
487 -485 -488 0
488 -485 -487 0
487 485 488 0
-488 0
479 489 0
480 489 0
481 489 0
482 489 0
-490 0
-491 489 -492 0
491 -489 -492 0
492 -489 -491 0
491 489 492 0
-492 0
480 493 0
481 493 0
482 493 0
-480 -481 -482 -493 0
-494 493 -495 0
494 -493 -495 0
495 -493 -494 0
494 493 495 0
-495 0
-496 493 -497 0
496 -493 -497 0
497 -493 -496 0
496 493 497 0
-497 0
-498 493 -499 0
498 -493 -499 0
499 -493 -498 0
498 493 499 0
-499 0
400 500 0
401 500 0
402 500 0
501 500 0
502 500 0
503 500 0
-504 0
-32 500 -505 0
32 -500 -505 0
505 -500 -32 0
32 500 505 0
-505 0
400 506 0
401 506 0
402 506 0
502 506 0
503 506 0
-507 0
-508 506 -509 0
508 -506 -509 0
509 -506 -508 0
508 506 509 0
-509 0
400 510 0
401 510 0
402 510 0
503 510 0
-511 0
-512 510 -513 0
512 -510 -513 0
513 -510 -512 0
512 510 513 0
-513 0
375 514 0
376 514 0
515 514 0
516 514 0
-517 0
-33 514 -518 0
33 -514 -518 0
518 -514 -33 0
33 514 518 0
-518 0
375 519 0
376 519 0
516 519 0
-375 -376 -516 -519 0
-520 519 -521 0
520 -519 -521 0
521 -519 -520 0
520 519 521 0
-521 0
522 523 0
524 523 0
525 523 0
526 523 0
527 523 0
-528 0
-34 523 -529 0
34 -523 -529 0
529 -523 -34 0
34 523 529 0
-529 0
524 530 0
525 530 0
526 530 0
527 530 0
-531 0
-532 530 -533 0
532 -530 -533 0
533 -530 -532 0
532 530 533 0
-533 0
525 534 0
526 534 0
527 534 0
-525 -526 -527 -534 0
-535 534 -536 0
535 -534 -536 0
536 -534 -535 0
535 534 536 0
-536 0
526 537 0
527 537 0
-526 -527 -537 0
-538 537 -539 0
538 -537 -539 0
539 -537 -538 0
538 537 539 0
-539 0
-540 537 -541 0
540 -537 -541 0
541 -537 -540 0
540 537 541 0
-541 0
542 543 0
544 543 0
545 543 0
546 543 0
547 543 0
548 543 0
-549 0
-35 543 -550 0
35 -543 -550 0
550 -543 -35 0
35 543 550 0
-550 0
544 551 0
545 551 0
546 551 0
547 551 0
548 551 0
-552 0
-553 551 -554 0
553 -551 -554 0
554 -551 -553 0
553 551 554 0
-554 0
545 555 0
546 555 0
547 555 0
548 555 0
-556 0
-557 555 -558 0
557 -555 -558 0
558 -555 -557 0
557 555 558 0
-558 0
546 559 0
547 559 0
548 559 0
-546 -547 -548 -559 0
-560 559 -561 0
560 -559 -561 0
561 -559 -560 0
560 559 561 0
-561 0
-562 559 -563 0
562 -559 -563 0
563 -559 -562 0
562 559 563 0
-563 0
-564 559 -565 0
564 -559 -565 0
565 -559 -564 0
564 559 565 0
-565 0
566 567 0
568 567 0
569 567 0
110 567 0
111 567 0
112 567 0
-570 0
-36 567 -571 0
36 -567 -571 0
571 -567 -36 0
36 567 571 0
-571 0
568 572 0
569 572 0
110 572 0
111 572 0
112 572 0
-573 0
-574 572 -575 0
574 -572 -575 0
575 -572 -574 0
574 572 575 0
-575 0
569 576 0
110 576 0
111 576 0
112 576 0
-577 0
-578 576 -579 0
578 -576 -579 0
579 -576 -578 0
578 576 579 0
-579 0
580 581 0
582 581 0
583 581 0
584 581 0
585 581 0
586 581 0
587 581 0
588 581 0
-589 0
-37 581 -590 0
37 -581 -590 0
590 -581 -37 0
37 581 590 0
-590 0
582 591 0
583 591 0
584 591 0
585 591 0
586 591 0
587 591 0
588 591 0
-592 0
-593 591 -594 0
593 -591 -594 0
594 -591 -593 0
593 591 594 0
-594 0
583 595 0
584 595 0
585 595 0
586 595 0
587 595 0
588 595 0
-596 0
-597 595 -598 0
597 -595 -598 0
598 -595 -597 0
597 595 598 0
-598 0
584 599 0
585 599 0
586 599 0
587 599 0
588 599 0
-600 0
-601 599 -602 0
601 -599 -602 0
602 -599 -601 0
601 599 602 0
-602 0
585 603 0
586 603 0
587 603 0
588 603 0
-604 0
-605 603 -606 0
605 -603 -606 0
606 -603 -605 0
605 603 606 0
-606 0
-607 603 -608 0
607 -603 -608 0
608 -603 -607 0
607 603 608 0
-608 0
-609 603 -610 0
609 -603 -610 0
610 -603 -609 0
609 603 610 0
-610 0
-611 603 -612 0
611 -603 -612 0
612 -603 -611 0
611 603 612 0
-612 0
613 614 0
615 614 0
616 614 0
617 614 0
618 614 0
-619 0
-38 614 -620 0
38 -614 -620 0
620 -614 -38 0
38 614 620 0
-620 0
615 621 0
616 621 0
617 621 0
618 621 0
-622 0
-623 621 -624 0
623 -621 -624 0
624 -621 -623 0
623 621 624 0
-624 0
616 625 0
617 625 0
618 625 0
-616 -617 -618 -625 0
-626 625 -627 0
626 -625 -627 0
627 -625 -626 0
626 625 627 0
-627 0
617 628 0
618 628 0
-617 -618 -628 0
-629 628 -630 0
629 -628 -630 0
630 -628 -629 0
629 628 630 0
-630 0
-631 628 -632 0
631 -628 -632 0
632 -628 -631 0
631 628 632 0
-632 0
633 634 0
635 634 0
636 634 0
637 634 0
-638 0
-39 634 -639 0
39 -634 -639 0
639 -634 -39 0
39 634 639 0
-639 0
635 640 0
636 640 0
637 640 0
-635 -636 -637 -640 0
-641 640 -642 0
641 -640 -642 0
642 -640 -641 0
641 640 642 0
-642 0
636 643 0
637 643 0
-636 -637 -643 0
-644 643 -645 0
644 -643 -645 0
645 -643 -644 0
644 643 645 0
-645 0
646 -637 0
637 -646 0
180 647 0
181 647 0
182 647 0
183 647 0
359 647 0
648 647 0
-649 0
-40 647 -650 0
40 -647 -650 0
650 -647 -40 0
40 647 650 0
-650 0
525 651 0
526 651 0
527 651 0
652 651 0
-653 0
-41 651 -654 0
41 -651 -654 0
654 -651 -41 0
41 651 654 0
-654 0
655 656 0
657 656 0
658 656 0
659 656 0
-660 0
-42 656 -661 0
42 -656 -661 0
661 -656 -42 0
42 656 661 0
-661 0
657 662 0
658 662 0
659 662 0
-657 -658 -659 -662 0
-663 662 -664 0
663 -662 -664 0
664 -662 -663 0
663 662 664 0
-664 0
658 665 0
659 665 0
-658 -659 -665 0
-666 665 -667 0
666 -665 -667 0
667 -665 -666 0
666 665 667 0
-667 0
-668 665 -669 0
668 -665 -669 0
669 -665 -668 0
668 665 669 0
-669 0
375 670 0
376 670 0
671 670 0
672 670 0
673 670 0
674 670 0
-675 0
-43 670 -676 0
43 -670 -676 0
676 -670 -43 0
43 670 676 0
-676 0
375 677 0
376 677 0
672 677 0
673 677 0
674 677 0
-678 0
-679 677 -680 0
679 -677 -680 0
680 -677 -679 0
679 677 680 0
-680 0
375 681 0
376 681 0
673 681 0
674 681 0
-682 0
-683 681 -684 0
683 -681 -684 0
684 -681 -683 0
683 681 684 0
-684 0
375 685 0
376 685 0
674 685 0
-375 -376 -674 -685 0
-686 685 -687 0
686 -685 -687 0
687 -685 -686 0
686 685 687 0
-687 0
688 689 0
690 689 0
399 689 0
400 689 0
401 689 0
402 689 0
-691 0
-44 689 -692 0
44 -689 -692 0
692 -689 -44 0
44 689 692 0
-692 0
690 693 0
399 693 0
400 693 0
401 693 0
402 693 0
-694 0
-695 693 -696 0
695 -693 -696 0
696 -693 -695 0
695 693 696 0
-696 0
697 698 0
699 698 0
700 698 0
375 698 0
376 698 0
-701 0
-45 698 -702 0
45 -698 -702 0
702 -698 -45 0
45 698 702 0
-702 0
699 703 0
700 703 0
375 703 0
376 703 0
-704 0
-705 703 -706 0
705 -703 -706 0
706 -703 -705 0
705 703 706 0
-706 0
700 707 0
375 707 0
376 707 0
-375 -376 -700 -707 0
-708 707 -709 0
708 -707 -709 0
709 -707 -708 0
708 707 709 0
-709 0
710 711 0
712 711 0
-710 -712 -711 0
-46 711 -713 0
46 -711 -713 0
713 -711 -46 0
46 711 713 0
-713 0
714 -712 0
712 -714 0
715 716 0
717 716 0
718 716 0
719 716 0
-720 0
-47 716 -721 0
47 -716 -721 0
721 -716 -47 0
47 716 721 0
-721 0
-722 716 -723 0
722 -716 -723 0
723 -716 -722 0
722 716 723 0
-723 0
-724 716 -725 0
724 -716 -725 0
725 -716 -724 0
724 716 725 0
-725 0
-726 716 -727 0
726 -716 -727 0
727 -716 -726 0
726 716 727 0
-727 0
728 729 0
-730 729 0
-728 730 -729 0
48 -729 0
-48 729 0
731 732 0
-733 732 0
-731 733 -732 0
50 -732 0
-50 732 0
734 735 0
-736 735 0
-734 736 -735 0
51 -735 0
-51 735 0
737 738 0
-739 738 0
-737 739 -738 0
57 -738 0
-57 738 0
740 741 0
-742 741 0
-740 742 -741 0
59 -741 0
-59 741 0
743 744 0
-745 744 0
-743 745 -744 0
60 -744 0
-60 744 0
746 747 0
-748 747 0
-746 748 -747 0
66 -747 0
-66 747 0
749 750 0
-751 750 0
-749 751 -750 0
68 -750 0
-68 750 0
752 753 0
-754 753 0
-752 754 -753 0
69 -753 0
-69 753 0
755 756 0
-757 756 0
-755 757 -756 0
70 -756 0
-70 756 0
758 759 0
-760 759 0
-758 760 -759 0
71 -759 0
-71 759 0
761 762 0
-763 762 0
-761 763 -762 0
72 -762 0
-72 762 0
764 765 0
-766 765 0
-764 766 -765 0
73 -765 0
-73 765 0
767 768 0
-769 768 0
-767 769 -768 0
94 -768 0
-94 768 0
770 771 0
-772 771 0
-770 772 -771 0
96 -771 0
-96 771 0
773 774 0
-775 774 0
-773 775 -774 0
97 -774 0
-97 774 0
776 777 0
-778 777 0
-776 778 -777 0
104 -777 0
-104 777 0
779 780 0
-781 780 0
-779 781 -780 0
106 -780 0
-106 780 0
782 783 0
-784 783 0
-782 784 -783 0
108 -783 0
-108 783 0
785 786 0
-787 786 0
-785 787 -786 0
109 -786 0
-109 786 0
788 789 0
-790 789 0
-788 790 -789 0
110 -789 0
-110 789 0
791 792 0
-793 792 0
-791 793 -792 0
111 -792 0
-111 792 0
794 795 0
-796 795 0
-794 796 -795 0
112 -795 0
-112 795 0
797 798 0
-799 798 0
-797 799 -798 0
131 -798 0
-131 798 0
800 801 0
-802 801 0
-800 802 -801 0
132 -801 0
-132 801 0
803 804 0
-805 804 0
-803 805 -804 0
140 -804 0
-140 804 0
806 807 0
-808 807 0
-806 808 -807 0
141 -807 0
-141 807 0
809 810 0
-811 810 0
-809 811 -810 0
142 -810 0
-142 810 0
812 813 0
-814 813 0
-812 814 -813 0
153 -813 0
-153 813 0
815 816 0
-817 816 0
-815 817 -816 0
155 -816 0
-155 816 0
818 819 0
-820 819 0
-818 820 -819 0
156 -819 0
-156 819 0
821 822 0
-823 822 0
-821 823 -822 0
157 -822 0
-157 822 0
824 825 0
-826 825 0
-824 826 -825 0
158 -825 0
-158 825 0
827 828 0
-829 828 0
-827 829 -828 0
159 -828 0
-159 828 0
830 831 0
-832 831 0
-830 832 -831 0
176 -831 0
-176 831 0
833 834 0
-835 834 0
-833 835 -834 0
178 -834 0
-178 834 0
836 837 0
-838 837 0
-836 838 -837 0
179 -837 0
-179 837 0
839 840 0
-841 840 0
-839 841 -840 0
180 -840 0
-180 840 0
842 843 0
-844 843 0
-842 844 -843 0
181 -843 0
-181 843 0
845 846 0
-847 846 0
-845 847 -846 0
182 -846 0
-182 846 0
848 849 0
-850 849 0
-848 850 -849 0
183 -849 0
-183 849 0
851 852 0
-853 852 0
-851 853 -852 0
205 -852 0
-205 852 0
854 855 0
-856 855 0
-854 856 -855 0
209 -855 0
-209 855 0
857 858 0
-859 858 0
-857 859 -858 0
213 -858 0
-213 858 0
860 861 0
-862 861 0
-860 862 -861 0
217 -861 0
-217 861 0
863 864 0
-865 864 0
-863 865 -864 0
218 -864 0
-218 864 0
866 867 0
-868 867 0
-866 868 -867 0
219 -867 0
-219 867 0
869 870 0
-871 870 0
-869 871 -870 0
230 -870 0
-230 870 0
872 873 0
-874 873 0
-872 874 -873 0
234 -873 0
-234 873 0
875 876 0
-877 876 0
-875 877 -876 0
235 -876 0
-235 876 0
878 879 0
-880 879 0
-878 880 -879 0
236 -879 0
-236 879 0
881 882 0
-883 882 0
-881 883 -882 0
248 -882 0
-248 882 0
884 885 0
-886 885 0
-884 886 -885 0
252 -885 0
-252 885 0
887 888 0
-889 888 0
-887 889 -888 0
253 -888 0
-253 888 0
890 891 0
-892 891 0
-890 892 -891 0
254 -891 0
-254 891 0
893 894 0
-895 894 0
-893 895 -894 0
266 -894 0
-266 894 0
896 897 0
-898 897 0
-896 898 -897 0
267 -897 0
-267 897 0
899 900 0
-901 900 0
-899 901 -900 0
274 -900 0
-274 900 0
902 903 0
903 -904 0
-902 904 -903 0
276 -903 0
-276 903 0
905 906 0
-907 906 0
-905 907 -906 0
278 -906 0
-278 906 0
908 909 0
-910 909 0
-908 910 -909 0
279 -909 0
-279 909 0
911 912 0
-913 912 0
-911 913 -912 0
280 -912 0
-280 912 0
914 915 0
-916 915 0
-914 916 -915 0
281 -915 0
-281 915 0
917 918 0
-919 918 0
-917 919 -918 0
295 -918 0
-295 918 0
920 921 0
921 -922 0
-920 922 -921 0
297 -921 0
-297 921 0
923 924 0
-925 924 0
-923 925 -924 0
298 -924 0
-298 924 0
926 927 0
927 -928 0
-926 928 -927 0
299 -927 0
-299 927 0
929 930 0
-931 930 0
-929 931 -930 0
300 -930 0
-300 930 0
932 933 0
-934 933 0
-932 934 -933 0
301 -933 0
-301 933 0
935 936 0
936 -937 0
-935 937 -936 0
302 -936 0
-302 936 0
938 939 0
-940 939 0
-938 940 -939 0
303 -939 0
-303 939 0
941 942 0
-943 942 0
-941 943 -942 0
328 -942 0
-328 942 0
944 945 0
945 -946 0
-944 946 -945 0
330 -945 0
-330 945 0
947 948 0
-949 948 0
-947 949 -948 0
331 -948 0
-331 948 0
950 951 0
-952 951 0
-950 952 -951 0
332 -951 0
-332 951 0
953 954 0
954 -955 0
-953 955 -954 0
333 -954 0
-333 954 0
956 957 0
-958 957 0
-956 958 -957 0
334 -957 0
-334 957 0
959 960 0
960 -961 0
-959 961 -960 0
335 -960 0
-335 960 0
962 963 0
-964 963 0
-962 964 -963 0
357 -963 0
-357 963 0
965 966 0
-967 966 0
-965 967 -966 0
358 -966 0
-358 966 0
968 969 0
969 -970 0
-968 970 -969 0
359 -969 0
-359 969 0
971 972 0
972 -973 0
-971 973 -972 0
370 -972 0
-370 972 0
974 975 0
-976 975 0
-974 976 -975 0
372 -975 0
-372 975 0
977 978 0
-979 978 0
-977 979 -978 0
373 -978 0
-373 978 0
980 981 0
-982 981 0
-980 982 -981 0
374 -981 0
-374 981 0
983 984 0
-985 984 0
-983 985 -984 0
375 -984 0
-375 984 0
986 987 0
-988 987 0
-986 988 -987 0
376 -987 0
-376 987 0
989 990 0
-991 990 0
-989 991 -990 0
395 -990 0
-395 990 0
992 993 0
-994 993 0
-992 994 -993 0
397 -993 0
-397 993 0
995 996 0
996 -997 0
-995 997 -996 0
398 -996 0
-398 996 0
998 999 0
-1000 999 0
-998 1000 -999 0
399 -999 0
-399 999 0
1001 1002 0
1002 -1003 0
-1001 1003 -1002 0
400 -1002 0
-400 1002 0
1004 1005 0
1005 -1006 0
-1004 1006 -1005 0
401 -1005 0
-401 1005 0
1007 1008 0
-1009 1008 0
-1007 1009 -1008 0
402 -1008 0
-402 1008 0
1010 1011 0
-1012 1011 0
-1010 1012 -1011 0
424 -1011 0
-424 1011 0
1013 1014 0
-1015 1014 0
-1013 1015 -1014 0
426 -1014 0
-426 1014 0
1016 1017 0
-1018 1017 0
-1016 1018 -1017 0
427 -1017 0
-427 1017 0
1019 1020 0
-1021 1020 0
-1019 1021 -1020 0
428 -1020 0
-428 1020 0
1022 1023 0
-1024 1023 0
-1022 1024 -1023 0
429 -1023 0
-429 1023 0
1025 1026 0
1026 -1027 0
-1025 1027 -1026 0
430 -1026 0
-430 1026 0
1028 1029 0
-1030 1029 0
-1028 1030 -1029 0
447 -1029 0
-447 1029 0
1031 1032 0
-1033 1032 0
-1031 1033 -1032 0
449 -1032 0
-449 1032 0
1034 1035 0
-1036 1035 0
-1034 1036 -1035 0
450 -1035 0
-450 1035 0
1037 1038 0
1038 -1039 0
-1037 1039 -1038 0
451 -1038 0
-451 1038 0
1040 1041 0
1041 -1042 0
-1040 1042 -1041 0
452 -1041 0
-452 1041 0
1043 1044 0
-1045 1044 0
-1043 1045 -1044 0
453 -1044 0
-453 1044 0
1046 1047 0
-1048 1047 0
-1046 1048 -1047 0
454 -1047 0
-454 1047 0
1049 1050 0
-1051 1050 0
-1049 1051 -1050 0
476 -1050 0
-476 1050 0
1052 1053 0
-1054 1053 0
-1052 1054 -1053 0
478 -1053 0
-478 1053 0
1055 1056 0
-1057 1056 0
-1055 1057 -1056 0
479 -1056 0
-479 1056 0
1058 1059 0
1059 -1060 0
-1058 1060 -1059 0
480 -1059 0
-480 1059 0
1061 1062 0
-1063 1062 0
-1061 1063 -1062 0
481 -1062 0
-481 1062 0
1064 1065 0
-1066 1065 0
-1064 1066 -1065 0
482 -1065 0
-482 1065 0
1067 1068 0
-1069 1068 0
-1067 1069 -1068 0
501 -1068 0
-501 1068 0
1070 1071 0
-1072 1071 0
-1070 1072 -1071 0
502 -1071 0
-502 1071 0
1073 1074 0
-1075 1074 0
-1073 1075 -1074 0
503 -1074 0
-503 1074 0
1076 1077 0
-1078 1077 0
-1076 1078 -1077 0
515 -1077 0
-515 1077 0
1079 1080 0
-1081 1080 0
-1079 1081 -1080 0
516 -1080 0
-516 1080 0
1082 1083 0
1083 -1084 0
-1082 1084 -1083 0
522 -1083 0
-522 1083 0
1085 1086 0
-1087 1086 0
-1085 1087 -1086 0
524 -1086 0
-524 1086 0
1088 1089 0
-1090 1089 0
-1088 1090 -1089 0
525 -1089 0
-525 1089 0
1091 1092 0
1092 -1093 0
-1091 1093 -1092 0
526 -1092 0
-526 1092 0
1094 1095 0
-1096 1095 0
-1094 1096 -1095 0
527 -1095 0
-527 1095 0
1097 1098 0
1098 -1099 0
-1097 1099 -1098 0
542 -1098 0
-542 1098 0
1100 1101 0
-1102 1101 0
-1100 1102 -1101 0
544 -1101 0
-544 1101 0
1103 1104 0
1104 -1105 0
-1103 1105 -1104 0
545 -1104 0
-545 1104 0
1106 1107 0
-1108 1107 0
-1106 1108 -1107 0
546 -1107 0
-546 1107 0
1109 1110 0
1110 -1111 0
-1109 1111 -1110 0
547 -1110 0
-547 1110 0
1112 1113 0
-1114 1113 0
-1112 1114 -1113 0
548 -1113 0
-548 1113 0
1115 1116 0
1116 -1117 0
-1115 1117 -1116 0
566 -1116 0
-566 1116 0
1118 1119 0
1119 -1120 0
-1118 1120 -1119 0
568 -1119 0
-568 1119 0
1121 1122 0
1122 -1123 0
-1121 1123 -1122 0
569 -1122 0
-569 1122 0
1124 1125 0
-1126 1125 0
-1124 1126 -1125 0
580 -1125 0
-580 1125 0
1127 1128 0
-1129 1128 0
-1127 1129 -1128 0
582 -1128 0
-582 1128 0
1130 1131 0
-1132 1131 0
-1130 1132 -1131 0
583 -1131 0
-583 1131 0
1133 1134 0
1134 -1135 0
-1133 1135 -1134 0
584 -1134 0
-584 1134 0
1136 1137 0
-1138 1137 0
-1136 1138 -1137 0
585 -1137 0
-585 1137 0
1139 1140 0
-1141 1140 0
-1139 1141 -1140 0
586 -1140 0
-586 1140 0
1142 1143 0
1143 -1144 0
-1142 1144 -1143 0
587 -1143 0
-587 1143 0
1145 1146 0
-1147 1146 0
-1145 1147 -1146 0
588 -1146 0
-588 1146 0
1148 1149 0
-1150 1149 0
-1148 1150 -1149 0
613 -1149 0
-613 1149 0
1151 1152 0
-1153 1152 0
-1151 1153 -1152 0
615 -1152 0
-615 1152 0
1154 1155 0
-1156 1155 0
-1154 1156 -1155 0
616 -1155 0
-616 1155 0
1157 1158 0
1158 -1159 0
-1157 1159 -1158 0
617 -1158 0
-617 1158 0
1160 1161 0
-1162 1161 0
-1160 1162 -1161 0
618 -1161 0
-618 1161 0
1163 1164 0
1164 -1165 0
-1163 1165 -1164 0
633 -1164 0
-633 1164 0
1166 1167 0
-1168 1167 0
-1166 1168 -1167 0
635 -1167 0
-635 1167 0
1169 1170 0
-1171 1170 0
-1169 1171 -1170 0
636 -1170 0
-636 1170 0
1172 1173 0
-1174 1173 0
-1172 1174 -1173 0
637 -1173 0
-637 1173 0
1175 1176 0
-1177 1176 0
-1175 1177 -1176 0
648 -1176 0
-648 1176 0
1178 1179 0
-1180 1179 0
-1178 1180 -1179 0
652 -1179 0
-652 1179 0
1181 1182 0
-1183 1182 0
-1181 1183 -1182 0
655 -1182 0
-655 1182 0
1184 1185 0
1185 -1186 0
-1184 1186 -1185 0
657 -1185 0
-657 1185 0
1187 1188 0
1188 -1189 0
-1187 1189 -1188 0
658 -1188 0
-658 1188 0
1190 1191 0
-1192 1191 0
-1190 1192 -1191 0
659 -1191 0
-659 1191 0
1193 1194 0
1194 -1195 0
-1193 1195 -1194 0
671 -1194 0
-671 1194 0
1196 1197 0
-1198 1197 0
-1196 1198 -1197 0
672 -1197 0
-672 1197 0
1199 1200 0
-1201 1200 0
-1199 1201 -1200 0
673 -1200 0
-673 1200 0
1202 1203 0
1203 -1204 0
-1202 1204 -1203 0
674 -1203 0
-674 1203 0
1205 1206 0
-1207 1206 0
-1205 1207 -1206 0
688 -1206 0
-688 1206 0
1208 1209 0
-1210 1209 0
-1208 1210 -1209 0
690 -1209 0
-690 1209 0
1211 1212 0
1212 -1213 0
-1211 1213 -1212 0
697 -1212 0
-697 1212 0
1214 1215 0
-1216 1215 0
-1214 1216 -1215 0
699 -1215 0
-699 1215 0
1217 1218 0
1218 -1219 0
-1217 1219 -1218 0
700 -1218 0
-700 1218 0
1220 1221 0
-1222 1221 0
-1220 1222 -1221 0
710 -1221 0
-710 1221 0
1223 1224 0
1224 -1225 0
-1223 1225 -1224 0
712 -1224 0
-712 1224 0
1226 1227 0
-1228 1227 0
-1226 1228 -1227 0
715 -1227 0
-715 1227 0
1229 1230 0
1230 -1231 0
-1229 1231 -1230 0
717 -1230 0
-717 1230 0
1232 1233 0
-1234 1233 0
-1232 1234 -1233 0
718 -1233 0
-718 1233 0
1235 1236 0
1236 -1237 0
-1235 1237 -1236 0
719 -1236 0
-719 1236 0
728 0
731 0
-734 0
-737 0
740 0
-743 0
746 0
-749 0
752 0
-755 0
-758 0
-761 0
764 0
-767 0
-770 0
773 0
-776 0
-779 0
782 0
785 0
788 0
791 0
-794 0
-797 0
800 0
-803 0
-806 0
-809 0
812 0
815 0
-818 0
821 0
824 0
-827 0
-830 0
-833 0
-836 0
839 0
-842 0
845 0
848 0
-851 0
-854 0
-857 0
860 0
-863 0
-866 0
-869 0
-872 0
-875 0
-878 0
-881 0
-884 0
-887 0
-890 0
-893 0
-896 0
-899 0
902 0
-905 0
-908 0
-911 0
-914 0
-917 0
920 0
-923 0
926 0
-929 0
-932 0
935 0
938 0
941 0
944 0
-947 0
950 0
953 0
-956 0
959 0
-962 0
-965 0
968 0
971 0
-974 0
977 0
-980 0
-983 0
-986 0
-989 0
-992 0
995 0
-998 0
1001 0
1004 0
-1007 0
1010 0
-1013 0
1016 0
1019 0
-1022 0
1025 0
-1028 0
-1031 0
-1034 0
1037 0
1040 0
-1043 0
1046 0
-1049 0
1052 0
-1055 0
1058 0
-1061 0
-1064 0
-1067 0
-1070 0
-1073 0
-1076 0
1079 0
1082 0
-1085 0
1088 0
1091 0
-1094 0
1097 0
-1100 0
1103 0
1106 0
1109 0
-1112 0
1115 0
1118 0
1121 0
-1124 0
1127 0
1130 0
1133 0
-1136 0
1139 0
1142 0
-1145 0
1148 0
-1151 0
-1154 0
1157 0
1160 0
1163 0
-1166 0
1169 0
-1172 0
-1175 0
1178 0
-1181 0
1184 0
1187 0
-1190 0
1193 0
-1196 0
-1199 0
1202 0
1205 0
-1208 0
1211 0
1214 0
1217 0
-1220 0
1223 0
-1226 0
1229 0
-1232 0
1235 0
-1238 -1239 0
-1238 -730 0
-1238 -733 0
-1238 -736 0
-1238 -739 0
-1238 -742 0
-1238 -745 0
-1238 -748 0
-1238 -751 0
-1238 -754 0
-1238 -757 0
-1238 -760 0
-1238 -763 0
-1238 -766 0
-1238 -769 0
772 -1238 0
-1238 -775 0
-1238 -778 0
781 -1238 0
-1238 -784 0
-1238 -787 0
-1238 -790 0
-1238 -793 0
-1238 -796 0
-1238 -799 0
-1238 -802 0
-1238 -805 0
-1238 -808 0
811 -1238 0
-1238 -814 0
-1238 -817 0
-1238 -820 0
-1238 -823 0
-1238 -826 0
-1238 -829 0
-1238 -832 0
835 -1238 0
838 -1238 0
-1238 -841 0
-1238 -844 0
-1238 -847 0
-1238 -850 0
-1238 -853 0
856 -1238 0
-1238 -859 0
-1238 -862 0
-1238 -865 0
-1238 -868 0
871 -1238 0
874 -1238 0
-1238 -877 0
-1238 -880 0
-1238 -883 0
886 -1238 0
-1238 -889 0
-1238 -892 0
-1238 -895 0
898 -1238 0
-1238 -901 0
904 -1238 0
907 -1238 0
910 -1238 0
-1238 -913 0
-1238 -916 0
919 -1238 0
922 -1238 0
-1238 -925 0
928 -1238 0
-1238 -931 0
934 -1238 0
937 -1238 0
-1238 -940 0
-1238 -943 0
946 -1238 0
-1238 -949 0
-1238 -952 0
955 -1238 0
958 -1238 0
961 -1238 0
-1238 -964 0
967 -1238 0
970 -1238 0
973 -1238 0
976 -1238 0
-1238 -979 0
982 -1238 0
985 -1238 0
-1238 -988 0
991 -1238 0
994 -1238 0
997 -1238 0
1000 -1238 0
1003 -1238 0
1006 -1238 0
-1238 -1009 0
-1238 -1012 0
1015 -1238 0
-1238 -1018 0
-1238 -1021 0
1024 -1238 0
1027 -1238 0
1030 -1238 0
-1238 -1033 0
1036 -1238 0
1039 -1238 0
1042 -1238 0
-1238 -1045 0
-1238 -1048 0
1051 -1238 0
-1238 -1054 0
1057 -1238 0
1060 -1238 0
-1238 -1063 0
-1238 -1066 0
-1238 -1069 0
-1238 -1072 0
-1238 -1075 0
1078 -1238 0
-1238 -1081 0
1084 -1238 0
-1238 -1087 0
-1238 -1090 0
1093 -1238 0
-1238 -1096 0
1099 -1238 0
-1238 -1102 0
1105 -1238 0
-1238 -1108 0
1111 -1238 0
1114 -1238 0
1117 -1238 0
1120 -1238 0
1123 -1238 0
-1238 -1126 0
-1238 -1129 0
-1238 -1132 0
1135 -1238 0
-1238 -1138 0
-1238 -1141 0
1144 -1238 0
1147 -1238 0
-1238 -1150 0
-1238 -1153 0
1156 -1238 0
1159 -1238 0
-1238 -1162 0
1165 -1238 0
-1238 -1168 0
-1238 -1171 0
1174 -1238 0
-1238 -1177 0
-1238 -1180 0
-1238 -1183 0
1186 -1238 0
1189 -1238 0
1192 -1238 0
1195 -1238 0
1198 -1238 0
-1238 -1201 0
1204 -1238 0
-1238 -1207 0
-1238 -1210 0
1213 -1238 0
-1238 -1216 0
1219 -1238 0
-1238 -1222 0
1225 -1238 0
-1238 -1228 0
1231 -1238 0
1234 -1238 0
1237 -1238 0
730 -1239 0
733 -1239 0
-1239 -736 0
-1239 -739 0
742 -1239 0
-1239 -745 0
748 -1239 0
-1239 -751 0
754 -1239 0
-1239 -757 0
-1239 -760 0
-1239 -763 0
766 -1239 0
-1239 -769 0
-1239 -772 0
775 -1239 0
-1239 -778 0
-1239 -781 0
784 -1239 0
787 -1239 0
790 -1239 0
793 -1239 0
-1239 -796 0
-1239 -799 0
802 -1239 0
-1239 -805 0
-1239 -808 0
-1239 -811 0
814 -1239 0
817 -1239 0
-1239 -820 0
823 -1239 0
826 -1239 0
-1239 -829 0
-1239 -832 0
-1239 -835 0
-1239 -838 0
841 -1239 0
-1239 -844 0
847 -1239 0
850 -1239 0
-1239 -853 0
-1239 -856 0
-1239 -859 0
862 -1239 0
-1239 -865 0
-1239 -868 0
-1239 -871 0
-1239 -874 0
-1239 -877 0
-1239 -880 0
-1239 -883 0
-1239 -886 0
-1239 -889 0
-1239 -892 0
-1239 -895 0
-1239 -898 0
-1239 -901 0
904 -1239 0
-1239 -907 0
-1239 -910 0
-1239 -913 0
-1239 -916 0
-1239 -919 0
922 -1239 0
-1239 -925 0
928 -1239 0
-1239 -931 0
-1239 -934 0
937 -1239 0
940 -1239 0
943 -1239 0
946 -1239 0
-1239 -949 0
952 -1239 0
955 -1239 0
-1239 -958 0
961 -1239 0
-1239 -964 0
-1239 -967 0
970 -1239 0
973 -1239 0
-1239 -976 0
979 -1239 0
-1239 -982 0
-1239 -985 0
-1239 -988 0
-1239 -991 0
-1239 -994 0
997 -1239 0
-1239 -1000 0
1003 -1239 0
1006 -1239 0
-1239 -1009 0
1012 -1239 0
-1239 -1015 0
1018 -1239 0
1021 -1239 0
-1239 -1024 0
1027 -1239 0
-1239 -1030 0
-1239 -1033 0
-1239 -1036 0
1039 -1239 0
1042 -1239 0
-1239 -1045 0
1048 -1239 0
-1239 -1051 0
1054 -1239 0
-1239 -1057 0
1060 -1239 0
-1239 -1063 0
-1239 -1066 0
-1239 -1069 0
-1239 -1072 0
-1239 -1075 0
-1239 -1078 0
1081 -1239 0
1084 -1239 0
-1239 -1087 0
1090 -1239 0
1093 -1239 0
-1239 -1096 0
1099 -1239 0
-1239 -1102 0
1105 -1239 0
1108 -1239 0
1111 -1239 0
-1239 -1114 0
1117 -1239 0
1120 -1239 0
1123 -1239 0
-1239 -1126 0
1129 -1239 0
1132 -1239 0
1135 -1239 0
-1239 -1138 0
1141 -1239 0
1144 -1239 0
-1239 -1147 0
1150 -1239 0
-1239 -1153 0
-1239 -1156 0
1159 -1239 0
1162 -1239 0
1165 -1239 0
-1239 -1168 0
1171 -1239 0
-1239 -1174 0
-1239 -1177 0
1180 -1239 0
-1239 -1183 0
1186 -1239 0
1189 -1239 0
-1239 -1192 0
1195 -1239 0
-1239 -1198 0
-1239 -1201 0
1204 -1239 0
1207 -1239 0
-1239 -1210 0
1213 -1239 0
1216 -1239 0
1219 -1239 0
-1239 -1222 0
1225 -1239 0
-1239 -1228 0
1231 -1239 0
-1239 -1234 0
1237 -1239 0
1238 1239 0
-1240 0
-1241 0
-1242 0
-1243 0
-1244 0
-1245 0
-1246 0
-1247 0
